50
15709

35 567
596 408
435 379
767 535
462 718
816 355
7 266
976 925
477 675
543 267
951 9
879 908
767 995
746 9
681 175
500 847
746 68
270 502
963 33
82 7
89 364
317 900
106 800
451 447
948 72
290 872
558 626
188 559
75 925
965 339
227 541
525 712
90 992
609 642
995 916
751 777
239 833
149 476
322 191
468 806
895 904
513 195
837 660
35 759
812 541
208 645
22 981
577 192
285 539
441 689
